p edge 222 797
e 1 2
e 1 4
e 1 7
e 1 13
e 1 22
e 1 68
e 1 76
e 1 85
e 1 107
e 1 108
e 1 117
e 1 123
e 1 128
e 1 133
e 1 143
e 1 164
e 1 170
e 1 207
e 2 5
e 2 7
e 2 11
e 2 13
e 2 21
e 2 31
e 2 32
e 2 40
e 2 51
e 2 56
e 2 62
e 2 67
e 2 79
e 2 209
e 3 12
e 3 28
e 3 34
e 3 43
e 3 46
e 3 58
e 3 95
e 3 111
e 3 114
e 3 135
e 3 146
e 3 147
e 3 149
e 3 165
e 3 170
e 4 9
e 4 11
e 4 13
e 4 14
e 4 15
e 4 22
e 4 33
e 4 37
e 4 48
e 4 52
e 4 57
e 4 60
e 4 61
e 4 68
e 4 76
e 4 95
e 4 110
e 4 123
e 4 131
e 4 159
e 4 160
e 4 173
e 4 185
e 4 196
e 4 207
e 5 7
e 5 15
e 5 31
e 5 32
e 5 52
e 5 53
e 5 59
e 5 92
e 5 95
e 5 160
e 5 161
e 5 174
e 5 209
e 5 214
e 5 218
e 5 222
e 6 13
e 6 14
e 6 15
e 6 16
e 6 23
e 6 24
e 6 25
e 6 35
e 6 36
e 6 42
e 6 46
e 6 50
e 6 53
e 6 92
e 6 130
e 6 140
e 6 180
e 6 187
e 7 11
e 7 14
e 7 31
e 7 32
e 7 37
e 7 40
e 7 62
e 7 67
e 7 88
e 7 132
e 7 209
e 8 10
e 8 23
e 8 25
e 8 32
e 8 34
e 8 38
e 8 56
e 8 63
e 8 73
e 8 75
e 8 87
e 8 90
e 8 123
e 8 126
e 8 154
e 8 191
e 9 21
e 9 49
e 9 57
e 9 67
e 9 98
e 9 125
e 9 149
e 9 152
e 9 157
e 9 162
e 9 163
e 9 179
e 9 198
e 10 18
e 10 22
e 10 29
e 10 32
e 10 34
e 10 63
e 10 64
e 10 68
e 10 76
e 10 81
e 10 90
e 10 116
e 10 133
e 10 167
e 10 191
e 11 14
e 11 15
e 11 31
e 11 32
e 11 37
e 11 40
e 11 42
e 11 48
e 11 52
e 11 53
e 11 58
e 11 62
e 11 67
e 11 118
e 12 27
e 12 30
e 12 35
e 12 48
e 12 49
e 12 99
e 12 146
e 12 147
e 12 149
e 12 153
e 12 168
e 12 195
e 13 19
e 13 22
e 13 25
e 13 45
e 13 56
e 13 63
e 13 68
e 13 76
e 13 92
e 13 115
e 13 122
e 13 123
e 13 207
e 14 15
e 14 16
e 14 46
e 14 48
e 14 50
e 14 88
e 14 104
e 14 124
e 15 16
e 15 17
e 15 38
e 15 39
e 15 40
e 15 46
e 15 48
e 15 54
e 15 197
e 15 218
e 16 17
e 16 24
e 16 45
e 16 46
e 16 54
e 16 72
e 16 90
e 16 184
e 17 27
e 17 41
e 17 42
e 17 54
e 17 58
e 17 69
e 17 73
e 17 104
e 18 22
e 18 24
e 18 64
e 18 66
e 18 80
e 18 81
e 18 90
e 18 127
e 18 136
e 18 155
e 18 188
e 18 206
e 19 20
e 19 29
e 19 63
e 19 78
e 19 96
e 19 105
e 19 115
e 19 122
e 19 133
e 19 202
e 20 59
e 20 71
e 20 91
e 20 100
e 20 117
e 20 121
e 20 164
e 20 176
e 20 199
e 21 28
e 21 41
e 21 51
e 21 67
e 21 79
e 21 157
e 21 212
e 21 213
e 22 25
e 22 38
e 22 45
e 22 49
e 22 53
e 22 68
e 22 76
e 22 81
e 22 89
e 22 90
e 22 95
e 22 115
e 22 123
e 22 207
e 23 24
e 23 35
e 23 36
e 23 47
e 23 67
e 23 154
e 23 178
e 24 33
e 24 35
e 24 36
e 24 51
e 24 80
e 24 168
e 24 178
e 25 45
e 25 53
e 25 73
e 25 108
e 25 130
e 25 191
e 26 34
e 26 54
e 26 70
e 26 93
e 26 98
e 26 151
e 26 204
e 26 211
e 26 215
e 27 35
e 27 42
e 27 48
e 27 52
e 27 55
e 27 71
e 27 74
e 27 77
e 27 83
e 27 140
e 27 180
e 27 205
e 28 73
e 28 86
e 28 95
e 28 112
e 28 122
e 28 128
e 28 135
e 28 139
e 28 142
e 28 174
e 28 183
e 28 212
e 28 213
e 29 32
e 29 34
e 29 62
e 29 63
e 29 78
e 29 88
e 29 100
e 29 116
e 29 135
e 29 143
e 29 191
e 29 192
e 30 33
e 30 35
e 30 36
e 30 99
e 30 179
e 31 40
e 31 43
e 31 53
e 31 67
e 31 75
e 31 197
e 32 34
e 32 42
e 32 43
e 32 58
e 32 75
e 32 112
e 32 209
e 33 35
e 33 36
e 33 144
e 34 46
e 34 75
e 34 111
e 35 36
e 35 48
e 35 99
e 36 39
e 36 40
e 36 101
e 37 52
e 37 66
e 37 74
e 37 117
e 37 130
e 37 135
e 37 171
e 38 49
e 38 81
e 38 87
e 38 89
e 38 126
e 38 129
e 39 40
e 39 197
e 40 67
e 40 197
e 41 53
e 42 58
e 42 60
e 42 92
e 42 193
e 43 75
e 43 104
e 43 112
e 43 125
e 43 146
e 43 149
e 43 171
e 44 49
e 44 84
e 44 138
e 44 145
e 44 172
e 44 186
e 44 190
e 45 53
e 45 90
e 45 94
e 45 110
e 45 134
e 46 104
e 46 111
e 46 218
e 47 57
e 47 65
e 47 67
e 47 85
e 47 119
e 47 158
e 48 52
e 48 77
e 48 140
e 48 180
e 48 217
e 49 81
e 49 82
e 49 84
e 49 89
e 49 145
e 49 168
e 49 177
e 49 186
e 50 57
e 51 79
e 51 81
e 51 84
e 51 148
e 51 153
e 51 168
e 51 178
e 51 194
e 52 77
e 52 86
e 52 108
e 52 109
e 52 116
e 52 180
e 53 95
e 53 130
e 53 134
e 54 70
e 54 79
e 54 211
e 55 73
e 55 86
e 55 112
e 55 139
e 55 159
e 56 195
e 57 91
e 57 102
e 57 166
e 58 69
e 58 73
e 58 165
e 58 193
e 59 92
e 59 107
e 59 121
e 59 158
e 59 160
e 59 164
e 59 209
e 60 74
e 60 92
e 60 95
e 60 110
e 60 111
e 60 131
e 60 160
e 60 185
e 61 69
e 61 77
e 61 92
e 61 106
e 61 159
e 61 173
e 61 184
e 61 193
e 62 78
e 62 135
e 62 143
e 62 192
e 63 116
e 63 122
e 63 161
e 63 191
e 64 68
e 64 83
e 64 93
e 64 155
e 64 167
e 64 188
e 65 85
e 65 87
e 65 154
e 65 156
e 65 158
e 66 124
e 66 130
e 66 136
e 66 211
e 67 157
e 68 76
e 68 97
e 68 123
e 68 167
e 68 173
e 68 196
e 68 207
e 69 72
e 69 73
e 69 124
e 69 184
e 70 93
e 71 77
e 71 83
e 71 131
e 71 134
e 71 140
e 71 185
e 71 187
e 72 77
e 72 83
e 72 124
e 72 184
e 73 86
e 73 139
e 73 174
e 73 191
e 74 93
e 74 111
e 74 205
e 75 104
e 75 125
e 75 171
e 76 79
e 76 90
e 76 97
e 76 123
e 76 138
e 76 145
e 76 186
e 76 207
e 76 210
e 77 83
e 77 140
e 77 180
e 77 193
e 78 96
e 78 109
e 78 115
e 78 133
e 78 135
e 78 143
e 78 192
e 79 97
e 79 138
e 79 145
e 79 186
e 79 210
e 80 162
e 80 163
e 80 208
e 81 89
e 81 90
e 81 113
e 81 178
e 81 194
e 82 84
e 82 89
e 82 141
e 82 150
e 82 151
e 82 177
e 82 198
e 83 136
e 83 140
e 83 205
e 84 141
e 84 145
e 84 148
e 84 186
e 84 204
e 85 91
e 85 158
e 86 108
e 86 109
e 86 116
e 86 139
e 86 174
e 86 203
e 87 126
e 87 137
e 88 118
e 88 132
e 89 99
e 89 101
e 89 103
e 89 144
e 89 150
e 89 177
e 91 102
e 91 121
e 91 166
e 91 176
e 92 106
e 92 160
e 92 209
e 93 215
e 94 110
e 95 110
e 95 131
e 95 135
e 95 160
e 95 185
e 96 115
e 96 133
e 96 192
e 97 138
e 97 145
e 97 173
e 97 186
e 97 190
e 97 210
e 98 149
e 98 151
e 98 152
e 98 198
e 98 204
e 99 101
e 99 103
e 99 132
e 100 121
e 100 199
e 101 103
e 101 132
e 102 119
e 102 166
e 102 216
e 104 171
e 105 199
e 105 202
e 106 138
e 107 108
e 107 113
e 107 117
e 107 128
e 107 133
e 107 158
e 107 164
e 107 170
e 108 109
e 108 116
e 108 117
e 108 128
e 108 133
e 108 164
e 108 170
e 109 114
e 109 116
e 109 143
e 110 131
e 110 160
e 110 185
e 112 122
e 112 128
e 112 139
e 112 142
e 112 183
e 114 170
e 114 183
e 114 203
e 115 133
e 116 142
e 116 191
e 117 128
e 117 133
e 117 135
e 117 164
e 117 170
e 117 171
e 119 126
e 119 216
e 120 189
e 121 164
e 121 176
e 121 199
e 122 128
e 122 139
e 122 142
e 122 161
e 122 183
e 123 145
e 123 207
e 125 152
e 125 162
e 125 163
e 126 137
e 128 133
e 128 139
e 128 142
e 128 164
e 128 170
e 128 183
e 129 200
e 131 160
e 131 185
e 133 164
e 133 170
e 134 175
e 134 187
e 135 143
e 135 171
e 135 192
e 136 181
e 136 182
e 136 205
e 136 206
e 138 172
e 138 186
e 138 210
e 139 142
e 139 183
e 139 203
e 140 180
e 140 187
e 140 217
e 141 152
e 142 183
e 143 192
e 144 150
e 145 186
e 145 210
e 146 147
e 146 149
e 147 149
e 147 195
e 148 153
e 149 152
e 149 198
e 150 169
e 150 177
e 151 198
e 151 204
e 152 162
e 152 163
e 152 198
e 155 188
e 155 219
e 155 220
e 155 221
e 159 173
e 160 185
e 160 209
e 161 174
e 162 163
e 164 170
e 169 172
e 175 217
e 178 194
e 180 187
e 181 182
e 181 206
e 182 206
e 183 203
e 186 210
e 188 206
e 196 201
e 212 213
e 219 220
e 219 221
e 220 221
